************************************************************************
file with basedata            : md372_.bas
initial value random generator: 2127455891
************************************************************************
projects                      :  1
jobs (incl. supersource/sink ):  22
horizon                       :  157
RESOURCES
  - renewable                 :  2   R
  - nonrenewable              :  2   N
  - doubly constrained        :  0   D
************************************************************************
PROJECT INFORMATION:
pronr.  #jobs rel.date duedate tardcost  MPM-Time
    1     20      0       20       19       20
************************************************************************
PRECEDENCE RELATIONS:
jobnr.    #modes  #successors   successors
   1        1          3           2   3   4
   2        3          3           8  13  15
   3        3          3           5   9  17
   4        3          3           6  14  18
   5        3          1          11
   6        3          3           7  10  11
   7        3          2          15  20
   8        3          3          10  18  21
   9        3          3          11  12  14
  10        3          1          20
  11        3          2          13  16
  12        3          3          13  16  18
  13        3          1          21
  14        3          1          19
  15        3          1          16
  16        3          2          19  21
  17        3          1          20
  18        3          1          19
  19        3          1          22
  20        3          1          22
  21        3          1          22
  22        1          0        
************************************************************************
REQUESTS/DURATIONS:
jobnr. mode duration  R 1  R 2  N 1  N 2
------------------------------------------------------------------------
  1      1     0       0    0    0    0
  2      1     1       0    9    2    5
         2     4       0    5    2    5
         3     8       0    3    1    5
  3      1     3      10    0    9    9
         2     7       0   10    8    9
         3     9       0   10    8    6
  4      1     7       4    0    6    5
         2     8       0    8    6    4
         3     9       0    6    6    3
  5      1     7       0    5    8    8
         2     8       2    0    8    5
         3    10       0    2    7    2
  6      1     1       0   10    8    5
         2    10       2    0    5    5
         3    10       0    7    5    5
  7      1     4       0   10   10    3
         2     6       0    6    8    2
         3     9       5    0    5    2
  8      1     4       0    3    5    9
         2     5       7    0    5    8
         3     7       0    2    4    7
  9      1     1       0    9    7   10
         2     2       6    0    5    7
         3     4       0    4    4    6
 10      1     3       9    0    8    4
         2     5       0    1    7    2
         3     7       6    0    7    2
 11      1     2       8    0    7    9
         2     9       0    6    7    5
         3    10       0    6    7    4
 12      1     4       9    0    7   10
         2     5       0    8    5    8
         3     9       0    4    2    7
 13      1     7       0    5    4    6
         2     8       9    0    4    6
         3     9       8    0    3    3
 14      1     5       0    4    7    9
         2     6       0    4    7    7
         3    10       0    4    7    6
 15      1     5       6    0    5   10
         2     6       0    2    3    9
         3     7       6    0    3    9
 16      1     1       7    0   10    4
         2     5       6    0    9    3
         3     6       0    6    6    3
 17      1     6       5    0    3   10
         2     8       3    0    3    7
         3     9       1    0    2    7
 18      1     3       0    3    8    5
         2     4       0    2    7    2
         3     8       0    2    6    1
 19      1     1       0    5    9    3
         2     2       6    0    6    3
         3     4       0    5    6    3
 20      1     1       0    6    7    4
         2     3      10    0    4    2
         3     9       0    5    4    1
 21      1     1       0    5    5    6
         2     3       9    0    5    4
         3     3      10    0    3    5
 22      1     0       0    0    0    0
************************************************************************
RESOURCEAVAILABILITIES:
  R 1  R 2  N 1  N 2
   27   28  125  122
************************************************************************
MAXIMAL LAGS:
from  to  type  delay
    1   12   ES      0
    1    2   ES      0
    2   12   ES      0
    1    3   ES      0
    3   12   ES      0
    1    4   ES      0
    4   12   ES      0
    1    5   ES      0
    5   12   ES      0
    1    6   ES      0
    6   12   ES      0
    1    7   ES      0
    7   12   ES      0
    1    8   ES      0
    8   12   ES      0
    1    9   ES      0
    9   12   ES      0
    1   10   ES      0
   10   12   ES      0
    1   11   ES      0
   11   12   ES      0
    1   12   ES      0
    2    8   SS      4
    2    8   SE      5
    8    2   SE      0
    2    8   ES      0
    2    8   EE     -3
    2   13   SS     -1
    2   13   SE      7
    2   13   ES     -4
    2   13   EE      2
    2   15   SS      5
    2   15   SE    -11
    2   15   ES    -11
    2   15   EE      3
    3    5   SS      8
    3    5   SE      6
    3    5   ES     -7
    3    5   EE     11
    3    9   SS     -4
    3    9   SE     12
    3    9   ES      1
    3    9   EE     -6
    3   17   SS      0
    3   17   SE      1
    3   17   ES      7
    3   17   EE      4
    4    6   SS     -5
    4    6   SE      3
    4    6   ES     -1
    4    6   EE     -1
    4   14   SS      8
    4   14   SE      8
    4   14   ES     -1
    4   14   EE      8
    4   18   SS    -12
    4   18   SE     -4
    4   18   ES     -2
    4   18   EE      5
    5   11   SS     -5
    5   11   SE      5
    5   11   ES      3
    5   11   EE     -1
    6    7   SS    -11
    6    7   SE    -12
    6    7   ES     11
    6    7   EE      3
    6   10   SS     11
    6   10   SE      2
    6   10   ES    -11
    6   10   EE      7
    6   11   SS      6
    6   11   SE    -11
    6   11   ES     11
    6   11   EE     -6
    7   15   SS     -9
    7   15   SE      2
    7   15   ES     -8
    7   15   EE     -9
    7   20   SS      8
    7   20   SE    -10
    7   20   ES     -5
    7   20   EE     12
    8   10   SS     -1
    8   10   SE      6
    8   10   ES     10
    8   10   EE      4
    8   18   SS    -12
    8   18   SE     -3
    8   18   ES     -6
    8   18   EE     -6
    8   21   SS     -5
    8   21   SE     -9
    8   21   ES     12
    8   21   EE     -1
    9   11   SS      9
    9   11   SE      1
    9   11   ES      6
    9   11   EE      1
    9   14   SS     -4
    9   14   SE    -12
    9   14   ES     -9
    9   14   EE    -11
   10   20   SS    -10
   10   20   SE     -3
   10   20   ES      0
   10   20   EE    -12
   11   13   SS    -10
   11   13   SE      7
   11   13   ES      9
   11   13   EE     -6
   11   16   SS     -6
   11   16   SE     -2
   11   16   ES     -7
   11   16   EE    -12
   12   13   SS      1
   12   13   SE     -7
   12   13   ES     -7
   12   13   EE      0
   12   16   SS    -11
   12   16   SE      9
   12   16   ES      6
   12   16   EE     -6
   12   18   SS    -10
   12   18   SE      0
   12   18   ES     11
   12   18   EE     -4
   13   21   SS     -8
   13   21   SE     12
   13   21   ES      0
   13   21   EE      0
   14   19   SS     -5
   14   19   SE     -5
   14   19   ES     -9
   14   19   EE      0
   15   16   SS     -9
   15   16   SE     -3
   15   16   ES    -11
   15   16   EE      5
   16   19   SS     -8
   16   19   SE     -6
   16   19   ES     -9
   16   19   EE    -12
   16   21   SS    -10
   16   21   SE      3
   16   21   ES    -10
   16   21   EE     10
   17   20   SS      2
   17   20   SE     -9
   17   20   ES      7
   17   20   EE      6
   18   19   SS     -3
   18   19   SE     -2
   18   19   ES      2
   18   19   EE     11
   19   22   SS     -4
   19   22   SE    -11
   19   22   ES     -2
   19   22   EE     12
   20   22   SS     -9
   20   22   SE      7
   20   22   ES      9
   20   22   EE      8
   21   22   SS      6
   21   22   SE     -1
   21   22   ES    -12
   21   22   EE      5
************************************************************************
